p cnf 62 191
3 -1 0
3 2 0
1 -2 -3 0
4 -1 -5 0
-4 1 -5 0
4 1 5 0
-4 -1 5 0
3 5 -6 0
-3 -5 -6 0
3 -5 6 0
-3 5 6 0
8 7 0
8 2 0
-7 -2 -8 0
9 -10 -11 0
-9 10 -11 0
9 10 11 0
-9 -10 11 0
12 8 0
12 -11 0
-8 11 -12 0
-13 6 0
-13 12 0
-6 -12 13 0
-16 -14 0
-16 15 0
14 -15 16 0
18 -9 0
18 -17 0
9 17 -18 0
20 -15 0
20 -19 0
15 19 -20 0
-21 18 0
-21 -20 0
-18 20 21 0
22 16 0
22 21 0
-16 -21 -22 0
24 10 0
24 -23 0
-10 23 -24 0
-18 -25 -26 0
18 25 -26 0
-18 25 26 0
18 -25 26 0
-27 -9 0
-27 26 0
9 -26 27 0
28 -24 0
28 -27 0
24 27 -28 0
29 11 0
29 -4 0
-11 4 -29 0
26 -29 -30 0
-26 29 -30 0
26 29 30 0
-26 -29 30 0
-28 30 -31 0
28 -30 -31 0
-28 -30 31 0
28 30 31 0
17 18 -32 0
-17 -18 -32 0
17 -18 32 0
-17 18 32 0
-33 19 0
-33 32 0
-19 -32 33 0
35 8 0
35 34 0
-8 -34 -35 0
-36 33 0
-36 -35 0
-33 35 36 0
37 -18 0
37 -2 0
18 2 -37 0
19 -37 -38 0
-19 37 -38 0
19 37 38 0
-19 -37 38 0
-38 39 0
38 39 0
-40 -36 0
-40 39 0
36 -39 40 0
41 -8 0
41 -18 0
8 18 -41 0
42 -40 0
42 -41 0
40 41 -42 0
-31 42 -43 0
31 -42 -43 0
-31 -42 43 0
31 42 43 0
-14 -4 -44 0
14 4 -44 0
-14 4 44 0
14 -4 44 0
-45 -44 0
-45 -24 0
44 24 45 0
29 -24 -46 0
-29 24 -46 0
29 24 46 0
-29 -24 46 0
-48 -29 0
-48 47 0
29 -47 48 0
-5 -48 -49 0
5 48 -49 0
-5 48 49 0
5 -48 49 0
50 -46 0
50 49 0
46 -49 -50 0
-45 50 -51 0
45 -50 -51 0
-45 -50 51 0
45 50 51 0
52 -17 0
52 -17 0
17 -52 0
-53 -51 0
-53 -52 0
51 52 53 0
19 -25 -54 0
-19 25 -54 0
19 25 54 0
-19 -25 54 0
-55 -54 0
-55 48 0
54 -48 55 0
56 -53 0
56 -55 0
53 55 -56 0
-57 -15 0
-57 -15 0
15 57 0
-58 54 0
-58 57 0
-54 -57 58 0
-59 -56 0
-59 58 0
56 -58 59 0
-43 -59 -60 0
43 59 -60 0
-43 59 60 0
43 -59 60 0
61 -22 0
61 -60 0
22 60 -61 0
62 -13 0
62 61 0
13 -61 -62 0
14 28 56 19 40 0
8 22 0
20 -4 -54 -9 46 0
-1 6 0
-3 -47 -34 0
27 -1 -47 -43 0
12 55 -1 -7 45 -10 0
-53 -7 0
-39 -40 0
1 -39 -19 -2 -35 -36 0
-1 18 11 -60 -28 0
17 -22 3 25 -34 51 0
-16 -30 -51 19 0
-16 8 42 -17 0
50 -7 56 0
-57 -55 11 0
25 23 -5 -21 0
51 3 -41 0
-38 -55 -2 31 -8 47 0
-34 20 -10 0
-36 27 0
13 -12 0
27 -4 36 0
-40 -5 -30 4 0
-21 49 2 -32 -25 0
17 50 -21 0
-19 50 51 28 0
50 47 0
46 39 29 7 -6 34 0
6 18 -38 14 0
-56 11 0
-48 -51 54 24 -20 0
62 0
